Route #1: 75 68 6 51 17 40 12 26 67
Route #2: 4 34 46 8 35 7 53 14
Route #3: 45 29 48 47 21 74 28 62 73
Route #4: 52 27 13 54 19 59 11 65 38
Route #5: 30 2 33 63 16 3 44 32
Route #6: 58 72 39 9 25 50 18 24 49 23 56
Route #7: 5 37 20 70 60 71 36 69 61 22 1 43
Route #8: 10 31 55 66 57 15 42 41 64
cost: 946
